example
Fraction correct: 0.9735
Verifying 1 through 2
Academic license - for non-commercial use only
Academic license - for non-commercial use only
[32m[info | MIPVerify]: Working on index 1
[39m[36m[notice | MIPVerify]: Attempting to find adversarial example. Neural net predicted label is 8, target labels are [1, 2, 3, 4, 5, 6, 7, 9, 10]
[39m[36m[notice | MIPVerify]: Rebuilding model from scratch. This may take some time as we determine upper and lower bounds for the input to each non-linear unit.
[39m[32m[info | MIPVerify]: Applying Flatten() ... 
[39m[32m[info | MIPVerify]: Applying Linear(784 -> 3136) ... 
[39m[32m[info | MIPVerify]: Applying ReLU() ...
[39m[32m[info | MIPVerify]:   Behavior of ReLUs - split: 579, zero_output: 152, linear_in_input: 1958, constant_output: 447
[39m[32m[info | MIPVerify]: Applying Linear(3136 -> 1568) ... 
[39m[32m[info | MIPVerify]: Applying ReLU() ...
[39m[32m[info | MIPVerify]:   Behavior of ReLUs - split: 237, zero_output: 140, linear_in_input: 1191, constant_output: 0
[39m[32m[info | MIPVerify]: Applying Linear(1568 -> 100) ... 
[39m[32m[info | MIPVerify]: Applying ReLU() ...
[39m[32m[info | MIPVerify]:   Behavior of ReLUs - split: 33, zero_output: 11, linear_in_input: 56, constant_output: 0
[39m[32m[info | MIPVerify]: Applying Linear(100 -> 10) ... 
[39m[32m[info | MIPVerify]: Number of inputs to maximum function possibly taking maximum value: 5
[39mOptimize a model with 6544 rows, 4057 columns and 238366 nonzeros
Variable types: 3203 continuous, 854 integer (854 binary)
Coefficient statistics:
  Matrix range     [5e-08, 9e+00]
  Objective range  [1e+00, 1e+00]
  Bounds range     [4e-04, 4e+00]
  RHS range        [1e-04, 9e+00]

MIP start did not produce a new incumbent solution
MIP start violates constraint R786 by 0.056153915

Presolve removed 2975 rows and 1457 columns
Presolve time: 0.42s

Explored 0 nodes (0 simplex iterations) in 0.57 seconds
Thread count was 1 (of 40 available processors)

Solution count 0

Model is infeasible or unbounded
Best objective -, best bound -, gap -
[32m[info | MIPVerify]: Working on index 2
[39m[36m[notice | MIPVerify]: Attempting to find adversarial example. Neural net predicted label is 3, target labels are [1, 2, 4, 5, 6, 7, 8, 9, 10]
[39m[36m[notice | MIPVerify]: Rebuilding model from scratch. This may take some time as we determine upper and lower bounds for the input to each non-linear unit.
[39m[32m[info | MIPVerify]: Applying Flatten() ... 
[39m[32m[info | MIPVerify]: Applying Linear(784 -> 3136) ... 
[39m[32m[info | MIPVerify]: Applying ReLU() ...
[39m[32m[info | MIPVerify]:   Behavior of ReLUs - split: 533, zero_output: 192, linear_in_input: 1964, constant_output: 447
[39m[32m[info | MIPVerify]: Applying Linear(3136 -> 1568) ... 
[39m[32m[info | MIPVerify]: Applying ReLU() ...
[39m[32m[info | MIPVerify]:   Behavior of ReLUs - split: 236, zero_output: 202, linear_in_input: 1130, constant_output: 0
[39m[32m[info | MIPVerify]: Applying Linear(1568 -> 100) ... 
[39m[32m[info | MIPVerify]: Applying ReLU() ...
[39m[32m[info | MIPVerify]:   Behavior of ReLUs - split: 29, zero_output: 20, linear_in_input: 51, constant_output: 0
[39m[32m[info | MIPVerify]: Applying Linear(100 -> 10) ... 
[39m[32m[info | MIPVerify]: Number of inputs to maximum function possibly taking maximum value: 6
[39mOptimize a model with 6342 rows, 3956 columns and 219098 nonzeros
Variable types: 3152 continuous, 804 integer (804 binary)
Coefficient statistics:
  Matrix range     [2e-08, 9e+00]
  Objective range  [1e+00, 1e+00]
  Bounds range     [1e-03, 4e+00]
  RHS range        [5e-04, 8e+00]

MIP start did not produce a new incumbent solution
MIP start violates constraint R786 by 0.035628409

Presolve removed 2989 rows and 1570 columns
Presolve time: 0.72s
Presolved: 3353 rows, 2386 columns, 210739 nonzeros
Variable types: 1584 continuous, 802 integer (802 binary)

Root relaxation: infeasible, 341 iterations, 0.04 seconds

    Nodes    |    Current Node    |     Objective Bounds      |     Work
 Expl Unexpl |  Obj  Depth IntInf | Incumbent    BestBd   Gap | It/Node Time

     0     0 infeasible    0               - infeasible      -     -    1s

Explored 0 nodes (341 simplex iterations) in 1.46 seconds
Thread count was 32 (of 40 available processors)

Solution count 0

Model is infeasible or unbounded
Best objective -, best bound -, gap -
example
Fraction correct: 0.9735
Verifying 1 through 2
Academic license - for non-commercial use only
Academic license - for non-commercial use only
example
Fraction correct: 0.9735
Verifying 1 through 4
Academic license - for non-commercial use only
Academic license - for non-commercial use only
[info | MIPVerify]: Working on index 4
[notice | MIPVerify]: Attempting to find adversarial example. Neural net predicted label is 1, target labels are [2, 3, 4, 5, 6, 7, 8, 9, 10]
[notice | MIPVerify]: Rebuilding model from scratch. This may take some time as we determine upper and lower bounds for the input to each non-linear unit.
[info | MIPVerify]: Applying Flatten() ... 
[info | MIPVerify]: Applying Linear(784 -> 3136) ... 
[info | MIPVerify]: Applying ReLU() ...
[info | MIPVerify]:   Behavior of ReLUs - split: 499, zero_output: 201, linear_in_input: 1989, constant_output: 447
[info | MIPVerify]: Applying Linear(3136 -> 1568) ... 
[info | MIPVerify]: Applying ReLU() ...
[info | MIPVerify]:   Behavior of ReLUs - split: 216, zero_output: 234, linear_in_input: 1118, constant_output: 0
[info | MIPVerify]: Applying Linear(1568 -> 100) ... 
[info | MIPVerify]: Applying ReLU() ...
[info | MIPVerify]:   Behavior of ReLUs - split: 24, zero_output: 13, linear_in_input: 63, constant_output: 0
[info | MIPVerify]: Applying Linear(100 -> 10) ... 
[info | MIPVerify]: Number of inputs to maximum function possibly taking maximum value: 8
Gurobi Optimizer version 9.0.1 build v9.0.1rc0 (win64)
Optimize a model with 6110 rows, 3840 columns and 196434 nonzeros
Model fingerprint: 0xf25807aa
Variable types: 3093 continuous, 747 integer (747 binary)
Coefficient statistics:
  Matrix range     [1e-07, 9e+00]
  Objective range  [1e+00, 1e+00]
  Bounds range     [8e-04, 3e+00]
  RHS range        [4e-04, 9e+00]

User MIP start did not produce a new incumbent solution
User MIP start violates constraint R786 by 0.047398938

Presolve removed 2711 rows and 1379 columns
Presolve time: 0.32s
Presolved: 3399 rows, 2461 columns, 191732 nonzeros
Variable types: 1715 continuous, 746 integer (746 binary)

Root relaxation: infeasible, 373 iterations, 0.03 seconds

    Nodes    |    Current Node    |     Objective Bounds      |     Work
 Expl Unexpl |  Obj  Depth IntInf | Incumbent    BestBd   Gap | It/Node Time

     0     0 infeasible    0               - infeasible      -     -    0s

Explored 0 nodes (373 simplex iterations) in 0.44 seconds
Thread count was 12 (of 12 available processors)

Solution count 0

Model is infeasible or unbounded
Best objective -, best bound -, gap -
